c FILE: hole8.cnf
c SOURCE: file mkhole.ml of Sylvain.Boulme@imag.fr
c DESCRIPTION: placing each of 9 pigeons in 8 distinct holes (one pigeon by hole)
c NOTE: Not Satisfiable
p cnf 72 297
72 71 70 69 68 67 66 65 0
64 63 62 61 60 59 58 57 0
56 55 54 53 52 51 50 49 0
48 47 46 45 44 43 42 41 0
40 39 38 37 36 35 34 33 0
32 31 30 29 28 27 26 25 0
24 23 22 21 20 19 18 17 0
16 15 14 13 12 11 10 9 0
8 7 6 5 4 3 2 1 0
-72 -64 0
-72 -56 0
-72 -48 0
-72 -40 0
-72 -32 0
-72 -24 0
-72 -16 0
-72 -8 0
-64 -56 0
-64 -48 0
-64 -40 0
-64 -32 0
-64 -24 0
-64 -16 0
-64 -8 0
-56 -48 0
-56 -40 0
-56 -32 0
-56 -24 0
-56 -16 0
-56 -8 0
-48 -40 0
-48 -32 0
-48 -24 0
-48 -16 0
-48 -8 0
-40 -32 0
-40 -24 0
-40 -16 0
-40 -8 0
-32 -24 0
-32 -16 0
-32 -8 0
-24 -16 0
-24 -8 0
-16 -8 0
-71 -63 0
-71 -55 0
-71 -47 0
-71 -39 0
-71 -31 0
-71 -23 0
-71 -15 0
-71 -7 0
-63 -55 0
-63 -47 0
-63 -39 0
-63 -31 0
-63 -23 0
-63 -15 0
-63 -7 0
-55 -47 0
-55 -39 0
-55 -31 0
-55 -23 0
-55 -15 0
-55 -7 0
-47 -39 0
-47 -31 0
-47 -23 0
-47 -15 0
-47 -7 0
-39 -31 0
-39 -23 0
-39 -15 0
-39 -7 0
-31 -23 0
-31 -15 0
-31 -7 0
-23 -15 0
-23 -7 0
-15 -7 0
-70 -62 0
-70 -54 0
-70 -46 0
-70 -38 0
-70 -30 0
-70 -22 0
-70 -14 0
-70 -6 0
-62 -54 0
-62 -46 0
-62 -38 0
-62 -30 0
-62 -22 0
-62 -14 0
-62 -6 0
-54 -46 0
-54 -38 0
-54 -30 0
-54 -22 0
-54 -14 0
-54 -6 0
-46 -38 0
-46 -30 0
-46 -22 0
-46 -14 0
-46 -6 0
-38 -30 0
-38 -22 0
-38 -14 0
-38 -6 0
-30 -22 0
-30 -14 0
-30 -6 0
-22 -14 0
-22 -6 0
-14 -6 0
-69 -61 0
-69 -53 0
-69 -45 0
-69 -37 0
-69 -29 0
-69 -21 0
-69 -13 0
-69 -5 0
-61 -53 0
-61 -45 0
-61 -37 0
-61 -29 0
-61 -21 0
-61 -13 0
-61 -5 0
-53 -45 0
-53 -37 0
-53 -29 0
-53 -21 0
-53 -13 0
-53 -5 0
-45 -37 0
-45 -29 0
-45 -21 0
-45 -13 0
-45 -5 0
-37 -29 0
-37 -21 0
-37 -13 0
-37 -5 0
-29 -21 0
-29 -13 0
-29 -5 0
-21 -13 0
-21 -5 0
-13 -5 0
-68 -60 0
-68 -52 0
-68 -44 0
-68 -36 0
-68 -28 0
-68 -20 0
-68 -12 0
-68 -4 0
-60 -52 0
-60 -44 0
-60 -36 0
-60 -28 0
-60 -20 0
-60 -12 0
-60 -4 0
-52 -44 0
-52 -36 0
-52 -28 0
-52 -20 0
-52 -12 0
-52 -4 0
-44 -36 0
-44 -28 0
-44 -20 0
-44 -12 0
-44 -4 0
-36 -28 0
-36 -20 0
-36 -12 0
-36 -4 0
-28 -20 0
-28 -12 0
-28 -4 0
-20 -12 0
-20 -4 0
-12 -4 0
-67 -59 0
-67 -51 0
-67 -43 0
-67 -35 0
-67 -27 0
-67 -19 0
-67 -11 0
-67 -3 0
-59 -51 0
-59 -43 0
-59 -35 0
-59 -27 0
-59 -19 0
-59 -11 0
-59 -3 0
-51 -43 0
-51 -35 0
-51 -27 0
-51 -19 0
-51 -11 0
-51 -3 0
-43 -35 0
-43 -27 0
-43 -19 0
-43 -11 0
-43 -3 0
-35 -27 0
-35 -19 0
-35 -11 0
-35 -3 0
-27 -19 0
-27 -11 0
-27 -3 0
-19 -11 0
-19 -3 0
-11 -3 0
-66 -58 0
-66 -50 0
-66 -42 0
-66 -34 0
-66 -26 0
-66 -18 0
-66 -10 0
-66 -2 0
-58 -50 0
-58 -42 0
-58 -34 0
-58 -26 0
-58 -18 0
-58 -10 0
-58 -2 0
-50 -42 0
-50 -34 0
-50 -26 0
-50 -18 0
-50 -10 0
-50 -2 0
-42 -34 0
-42 -26 0
-42 -18 0
-42 -10 0
-42 -2 0
-34 -26 0
-34 -18 0
-34 -10 0
-34 -2 0
-26 -18 0
-26 -10 0
-26 -2 0
-18 -10 0
-18 -2 0
-10 -2 0
-65 -57 0
-65 -49 0
-65 -41 0
-65 -33 0
-65 -25 0
-65 -17 0
-65 -9 0
-65 -1 0
-57 -49 0
-57 -41 0
-57 -33 0
-57 -25 0
-57 -17 0
-57 -9 0
-57 -1 0
-49 -41 0
-49 -33 0
-49 -25 0
-49 -17 0
-49 -9 0
-49 -1 0
-41 -33 0
-41 -25 0
-41 -17 0
-41 -9 0
-41 -1 0
-33 -25 0
-33 -17 0
-33 -9 0
-33 -1 0
-25 -17 0
-25 -9 0
-25 -1 0
-17 -9 0
-17 -1 0
-9 -1 0
